Optimal - objective value 0.00000000
      0 sv_addi0                     0                       0
      1 sv_addi1                     0                       0
      2 sv_addi2                     0                       0
      3 sv_addi3                     0                       0
      4 sv_br1                       0                       0
      5 sv_br2                       0                       0
      6 sv_br3                       0                       0
      7 sv_cmpi0                     0                       0
      8 sv_cond_br1                  0                       0
      9 sv_cond_br2                  0                       0
     10 sv_cond_br3                  0                       0
     11 sv_cond_br4                  0                       0
     12 sv_cond_br5                  0                       0
     13 sv_constant1                 0                       0
     14 sv_constant2                 0                       0
     15 sv_constant5                 0                       0
     16 sv_extui0                    0                       0
     17 sv_extui1                    0                       0
     18 sv_extui2                    0                       0
     19 sv_extui3                    0                       0
     20 sv_extui4                    0                       0
     21 sv_extui5                    0                       0
     22 sv_extui6                    0                       0
     23 sv_index_cast0               0                       0
     24 sv_index_cast1               0                       0
     25 sv_index_cast2               0                       0
     26 sv_index_cast3               0                       0
     27 sv_index_cast4               0                       0
     28 sv_index_cast5               0                       0
     29 sv_index_cast6               0                       0
     30 sv_load0                     0                       0
     31 sv_load1                     0                       0
     32 sv_load2                     0                       0
     33 sv_load3                     0                       0
     34 sv_load4                     0                       0
     35 sv_load5                     0                       0
     36 sv_muli0                     0                       0
     37 sv_muli1                     0                       0
     38 sv_phi0                      0                       0
     39 sv_phi1                      0                       0
     40 sv_phi2                      0                       0
     41 sv_return1                   0                       0
     42 sv_start0                    0                       0
     43 sv_store6                    0                       0
